Route 1: 0 16 78 42 67 4 37 94 28 0
Route 2: 0 87 51 61 19 15 40 57 52 0
Route 3: 0 20 35 89 49 23 50 64 0
Route 4: 0 48 41 76 5 31 59 0
Route 5: 0 44 13 70 86 77 47 73 72 29 56 71 26 0
Route 6: 0 36 45 8 12 25 80 95 33 3 0
Route 7: 0 27 32 7 69 90 53 11 81 99 0
Route 8: 0 82 38 100 10 39 54 1 55 58 65 0
Route 9: 0 2 91 9 79 43 68 88 0
Route 10: 0 63 18 97 74 83 22 0
Route 11: 0 93 6 62 98 60 46 96 0
Route 12: 0 84 14 85 92 66 34 21 0
Route 13: 0 17 24 75 30 0
